NAME : prob20d
TYPE : PDTSP
DIMENSION : 41
EDGE_WEIGHT_TYPE : EUC_2D
NODE_COORD_SECTION
1 137 716
2 715 127
3 889 353
4 180 105
5 547 529
6 526 644
7 535 333
8 935 969
9 751 898
10 175 444
11 28 614
12 860 311
13 203 486
14 346 312
15 401 506
16 497 571
17 932 76
18 866 628
19 492 758
20 502 762
21 735 577
22 549 226
23 487 896
24 573 788
25 729 383
26 458 201
27 499 966
28 358 126
29 228 175
30 535 469
31 927 922
32 388 336
33 643 264
34 242 494
35 574 991
36 945 712
37 124 10
38 122 925
39 549 347
40 635 405
41 969 688
PICKUP_AND_DELIVERY_SECTION
1 0 0 0 0 0 0
2 0 0 0 0 22 0
3 0 0 0 0 23 0
4 0 0 0 0 24 0
5 0 0 0 0 25 0
6 0 0 0 0 26 0
7 0 0 0 0 27 0
8 0 0 0 0 28 0
9 0 0 0 0 29 0
10 0 0 0 0 30 0
11 0 0 0 0 31 0
12 0 0 0 0 32 0
13 0 0 0 0 33 0
14 0 0 0 0 34 0
15 0 0 0 0 35 0
16 0 0 0 0 36 0
17 0 0 0 0 37 0
18 0 0 0 0 38 0
19 0 0 0 0 39 0
20 0 0 0 0 40 0
21 0 0 0 0 41 0
22 0 0 0 0 0 2
23 0 0 0 0 0 3
24 0 0 0 0 0 4
25 0 0 0 0 0 5
26 0 0 0 0 0 6
27 0 0 0 0 0 7
28 0 0 0 0 0 8
29 0 0 0 0 0 9
30 0 0 0 0 0 10
31 0 0 0 0 0 11
32 0 0 0 0 0 12
33 0 0 0 0 0 13
34 0 0 0 0 0 14
35 0 0 0 0 0 15
36 0 0 0 0 0 16
37 0 0 0 0 0 17
38 0 0 0 0 0 18
39 0 0 0 0 0 19
40 0 0 0 0 0 20
41 0 0 0 0 0 21
DEPOT_SECTION
1 
-1
EOF
